language ESSENCE' 1.0

letting capacity_FunctionAsRelation_RelationAsSet_Explicit_1 be [1, 2, 3, 4; int(1..4)]
letting capacity_FunctionAsRelation_RelationAsSet_Explicit_2 be [3, 5, 8, 13; int(1..4)]
letting buckets be 4
letting HORIZON be 30
letting initialState_FunctionAsRelation_RelationAsSet_Explicit_1 be [1, 2, 3, 4; int(1..4)]
letting initialState_FunctionAsRelation_RelationAsSet_Explicit_2 be [0, 0, 0, 13; int(1..4)]
letting finalState_FunctionAsRelation_RelationAsSet_Explicit_1 be [1, 2, 3, 4; int(1..4)]
letting finalState_FunctionAsRelation_RelationAsSet_Explicit_2 be [3, 4, 4, 2; int(1..4)]
letting fin1 be 4
letting fin2 be 1
letting fin3 be 4
letting fin4 be 0
letting fin5 be 13
letting fin6 be 4
letting fin7 be 1
letting fin8 be 4
letting fin9 be 2
letting fin10 be 4
letting fin11 be 4
letting fin12 be 1
letting fin13 be 4
letting fin14 be 3
letting fin15 be 13
